s td 62 15 93
b 1 12 16 44 63
b 2 25 46 50 79
b 3 9 47 57 63
b 4 33 50 55 82
b 5 15 61 73 80 90
b 6 16 28 44 62 63 70
b 7 24 28 62 63 70
b 8 20 42 49 78 83
b 9 1 8 22 46 50 79
b 10 1 8 22 50 52
b 11 1 6 8 22 27 50
b 12 1 8 22 27 50 69
b 13 7 28 30 62 63 70
b 14 7 28 62 63 70 84
b 15 27 28 31 62 63 70
b 16 27 28 53 62 63 70
b 17 7 20 49 76 78 83
b 18 7 20 49 78 83 93
b 19 1 2 8 19 33 50 58 73 77 80 82 87 91
b 20 1 8 19 50 58 68 73 77 80 87 91
b 21 1 8 19 50 58 61 68 73 77 80
b 22 1 8 19 27 38 50 61 68 73 77 80 90
b 23 1 19 27 35 38 50 61 68 73 77 80 90
b 24 1 3 19 27 35 38 61 68 73 77 80 90
b 25 3 7 18 19 27 35 38 40 61 68 71 73 77 80 90
b 26 3 7 18 27 35 38 40 61 68 70 71 73 80 90
b 27 3 7 18 27 35 40 61 63 68 70 71 73 80 90
b 28 3 7 18 27 40 61 62 63 68 70 71 73 80 90
b 29 18 40 61 62 63 68 70 71 73 80 86
b 30 18 39 40 62 63 68 70 71 73 80 86
b 31 4 18 39 40 62 63 68 70 71 80 86
b 32 4 10 17 18 39 40 43 62 63 67 68 70 71 86
b 33 4 9 10 17 39 43 57 62 63 67 70 86
b 34 4 10 17 29 39 43 62 63 67 70 71 86
b 35 4 10 17 32 39 43 62 63 67 70 86
b 36 4 10 17 36 39 43 62 63 67 68 70 86
b 37 4 10 17 39 43 51 62 63 67 68 70 86
b 38 4 10 17 39 43 62 63 67 70 71 74 86
b 39 7 27 28 61 62 63 70 73 80 90
b 40 26 28 61 62 63 70 73 80 90
b 41 28 61 62 63 70 73 80 81 90
b 42 3 7 18 19 35 38 40 54 61 71 73 77 80 88 90
b 43 3 7 35 38 54 61 71 73 80 83 88 90
b 44 3 7 35 54 61 71 73 78 80 83 88 90
b 45 7 35 49 54 61 71 73 78 80 83 88 90
b 46 49 54 61 71 73 78 80 83 88 92
b 47 37 49 54 61 71 78 80 83 88 92
b 48 34 37 49 54 66 71 78 80 83 88 92
b 49 13 34 37 49 54 66 78 80 83 88 92
b 50 5 13 34 41 45 54 66 88
b 51 13 34 37 49 54 65 66 80 88 92
b 52 7 20 49 61 73 78 80 83 90
b 53 20 48 49 61 73 78 80 83 90
b 54 20 49 61 64 73 78 80 83 90
b 55 3 18 19 35 38 40 54 61 73 77 80 85 88
b 56 11 18 19 40 54 72 77 85 88 89
b 57 1 8 22 27 50 61 73 80 90
b 58 1 8 22 23 50 61 73 80 90
b 59 1 8 22 50 61 73 75 80 90
b 60 2 14 19 33 59 60 77 82 87 91
b 61 1 2 19 21 33 50 58 73 77 80 82 87 91
b 62 1 2 19 21 33 56 58 73 77 82 87 91
1 6
2 9
3 33
4 19
5 22
6 39
7 39
8 52
9 57
10 57
11 57
12 57
13 39
14 39
15 39
16 39
17 52
18 52
19 20
19 60
19 61
20 21
21 22
22 23
22 57
23 24
24 25
25 26
25 42
26 27
27 28
28 29
28 39
29 30
30 31
31 32
32 33
32 34
32 35
32 36
32 37
32 38
39 40
39 41
42 43
42 55
43 44
44 45
45 46
45 52
46 47
47 48
48 49
49 50
49 51
52 53
52 54
55 56
57 58
57 59
61 62
